p cnf 806 2120 
-6 4 5 0
6 -4 0
6 -5 0
-28 10 11 0
28 -10 0
28 -11 0
-26 22 23 0
26 -22 0
26 -23 0
-27 24 25 0
27 -24 0
27 -25 0
-12 26 27 0
12 -26 0
12 -27 0
7 -4 -5 0
-7 4 0
-7 5 0
10 -4 -5 0
-10 4 0
-10 5 0
11 -9 -3 0
-11 9 0
-11 3 0
16 -14 -7 0
-16 14 0
-16 7 0
18 -13 -6 0
-18 13 0
-18 6 0
19 -8 -1 0
-19 8 0
-19 1 0
21 -15 -1 0
-21 15 0
-21 1 0
22 -16 -17 0
-22 16 0
-22 17 0
23 -2 -18 0
-23 2 0
-23 18 0
24 -19 -20 0
-24 19 0
-24 20 0
25 -2 -21 0
-25 2 0
-25 21 0
-8 -4 0
8 4 0
-13 -1 0
13 1 0
-14 -1 0
14 1 0
-17 -2 0
17 2 0
-20 -2 0
20 2 0
-9 -4 -5 0
-9 4 5 0
9 -4 5 0
9 4 -5 0
-15 -3 -9 0
-15 3 9 0
15 -3 9 0
15 3 -9 0
-31 29 30 0
31 -29 0
31 -30 0
-53 35 36 0
53 -35 0
53 -36 0
-51 47 48 0
51 -47 0
51 -48 0
-52 49 50 0
52 -49 0
52 -50 0
-37 51 52 0
37 -51 0
37 -52 0
32 -29 -30 0
-32 29 0
-32 30 0
35 -29 -30 0
-35 29 0
-35 30 0
36 -34 -28 0
-36 34 0
-36 28 0
41 -39 -32 0
-41 39 0
-41 32 0
43 -38 -31 0
-43 38 0
-43 31 0
44 -33 -1 0
-44 33 0
-44 1 0
46 -40 -1 0
-46 40 0
-46 1 0
47 -41 -42 0
-47 41 0
-47 42 0
48 -2 -43 0
-48 2 0
-48 43 0
49 -44 -45 0
-49 44 0
-49 45 0
50 -2 -46 0
-50 2 0
-50 46 0
-33 -29 0
33 29 0
-38 -1 0
38 1 0
-39 -1 0
39 1 0
-42 -2 0
42 2 0
-45 -2 0
45 2 0
-34 -29 -30 0
-34 29 30 0
34 -29 30 0
34 29 -30 0
-40 -28 -34 0
-40 28 34 0
40 -28 34 0
40 28 -34 0
-56 54 55 0
56 -54 0
56 -55 0
-78 60 61 0
78 -60 0
78 -61 0
-76 72 73 0
76 -72 0
76 -73 0
-77 74 75 0
77 -74 0
77 -75 0
-62 76 77 0
62 -76 0
62 -77 0
57 -54 -55 0
-57 54 0
-57 55 0
60 -54 -55 0
-60 54 0
-60 55 0
61 -59 -53 0
-61 59 0
-61 53 0
66 -64 -57 0
-66 64 0
-66 57 0
68 -63 -56 0
-68 63 0
-68 56 0
69 -58 -1 0
-69 58 0
-69 1 0
71 -65 -1 0
-71 65 0
-71 1 0
72 -66 -67 0
-72 66 0
-72 67 0
73 -2 -68 0
-73 2 0
-73 68 0
74 -69 -70 0
-74 69 0
-74 70 0
75 -2 -71 0
-75 2 0
-75 71 0
-58 -54 0
58 54 0
-63 -1 0
63 1 0
-64 -1 0
64 1 0
-67 -2 0
67 2 0
-70 -2 0
70 2 0
-59 -54 -55 0
-59 54 55 0
59 -54 55 0
59 54 -55 0
-65 -53 -59 0
-65 53 59 0
65 -53 59 0
65 53 -59 0
-81 79 80 0
81 -79 0
81 -80 0
-103 85 86 0
103 -85 0
103 -86 0
-101 97 98 0
101 -97 0
101 -98 0
-102 99 100 0
102 -99 0
102 -100 0
-87 101 102 0
87 -101 0
87 -102 0
82 -79 -80 0
-82 79 0
-82 80 0
85 -79 -80 0
-85 79 0
-85 80 0
86 -84 -78 0
-86 84 0
-86 78 0
91 -89 -82 0
-91 89 0
-91 82 0
93 -88 -81 0
-93 88 0
-93 81 0
94 -83 -1 0
-94 83 0
-94 1 0
96 -90 -1 0
-96 90 0
-96 1 0
97 -91 -92 0
-97 91 0
-97 92 0
98 -2 -93 0
-98 2 0
-98 93 0
99 -94 -95 0
-99 94 0
-99 95 0
100 -2 -96 0
-100 2 0
-100 96 0
-83 -79 0
83 79 0
-88 -1 0
88 1 0
-89 -1 0
89 1 0
-92 -2 0
92 2 0
-95 -2 0
95 2 0
-84 -79 -80 0
-84 79 80 0
84 -79 80 0
84 79 -80 0
-90 -78 -84 0
-90 78 84 0
90 -78 84 0
90 78 -84 0
-106 104 105 0
106 -104 0
106 -105 0
-128 110 111 0
128 -110 0
128 -111 0
-126 122 123 0
126 -122 0
126 -123 0
-127 124 125 0
127 -124 0
127 -125 0
-112 126 127 0
112 -126 0
112 -127 0
107 -104 -105 0
-107 104 0
-107 105 0
110 -104 -105 0
-110 104 0
-110 105 0
111 -109 -103 0
-111 109 0
-111 103 0
116 -114 -107 0
-116 114 0
-116 107 0
118 -113 -106 0
-118 113 0
-118 106 0
119 -108 -1 0
-119 108 0
-119 1 0
121 -115 -1 0
-121 115 0
-121 1 0
122 -116 -117 0
-122 116 0
-122 117 0
123 -2 -118 0
-123 2 0
-123 118 0
124 -119 -120 0
-124 119 0
-124 120 0
125 -2 -121 0
-125 2 0
-125 121 0
-108 -104 0
108 104 0
-113 -1 0
113 1 0
-114 -1 0
114 1 0
-117 -2 0
117 2 0
-120 -2 0
120 2 0
-109 -104 -105 0
-109 104 105 0
109 -104 105 0
109 104 -105 0
-115 -103 -109 0
-115 103 109 0
115 -103 109 0
115 103 -109 0
-131 129 130 0
131 -129 0
131 -130 0
-153 135 136 0
153 -135 0
153 -136 0
-151 147 148 0
151 -147 0
151 -148 0
-152 149 150 0
152 -149 0
152 -150 0
-137 151 152 0
137 -151 0
137 -152 0
132 -129 -130 0
-132 129 0
-132 130 0
135 -129 -130 0
-135 129 0
-135 130 0
136 -134 -128 0
-136 134 0
-136 128 0
141 -139 -132 0
-141 139 0
-141 132 0
143 -138 -131 0
-143 138 0
-143 131 0
144 -133 -1 0
-144 133 0
-144 1 0
146 -140 -1 0
-146 140 0
-146 1 0
147 -141 -142 0
-147 141 0
-147 142 0
148 -2 -143 0
-148 2 0
-148 143 0
149 -144 -145 0
-149 144 0
-149 145 0
150 -2 -146 0
-150 2 0
-150 146 0
-133 -129 0
133 129 0
-138 -1 0
138 1 0
-139 -1 0
139 1 0
-142 -2 0
142 2 0
-145 -2 0
145 2 0
-134 -129 -130 0
-134 129 130 0
134 -129 130 0
134 129 -130 0
-140 -128 -134 0
-140 128 134 0
140 -128 134 0
140 128 -134 0
-156 154 155 0
156 -154 0
156 -155 0
-178 160 161 0
178 -160 0
178 -161 0
-176 172 173 0
176 -172 0
176 -173 0
-177 174 175 0
177 -174 0
177 -175 0
-162 176 177 0
162 -176 0
162 -177 0
157 -154 -155 0
-157 154 0
-157 155 0
160 -154 -155 0
-160 154 0
-160 155 0
161 -159 -153 0
-161 159 0
-161 153 0
166 -164 -157 0
-166 164 0
-166 157 0
168 -163 -156 0
-168 163 0
-168 156 0
169 -158 -1 0
-169 158 0
-169 1 0
171 -165 -1 0
-171 165 0
-171 1 0
172 -166 -167 0
-172 166 0
-172 167 0
173 -2 -168 0
-173 2 0
-173 168 0
174 -169 -170 0
-174 169 0
-174 170 0
175 -2 -171 0
-175 2 0
-175 171 0
-158 -154 0
158 154 0
-163 -1 0
163 1 0
-164 -1 0
164 1 0
-167 -2 0
167 2 0
-170 -2 0
170 2 0
-159 -154 -155 0
-159 154 155 0
159 -154 155 0
159 154 -155 0
-165 -153 -159 0
-165 153 159 0
165 -153 159 0
165 153 -159 0
-181 179 180 0
181 -179 0
181 -180 0
-203 185 186 0
203 -185 0
203 -186 0
-201 197 198 0
201 -197 0
201 -198 0
-202 199 200 0
202 -199 0
202 -200 0
-187 201 202 0
187 -201 0
187 -202 0
182 -179 -180 0
-182 179 0
-182 180 0
185 -179 -180 0
-185 179 0
-185 180 0
186 -184 -178 0
-186 184 0
-186 178 0
191 -189 -182 0
-191 189 0
-191 182 0
193 -188 -181 0
-193 188 0
-193 181 0
194 -183 -1 0
-194 183 0
-194 1 0
196 -190 -1 0
-196 190 0
-196 1 0
197 -191 -192 0
-197 191 0
-197 192 0
198 -2 -193 0
-198 2 0
-198 193 0
199 -194 -195 0
-199 194 0
-199 195 0
200 -2 -196 0
-200 2 0
-200 196 0
-183 -179 0
183 179 0
-188 -1 0
188 1 0
-189 -1 0
189 1 0
-192 -2 0
192 2 0
-195 -2 0
195 2 0
-184 -179 -180 0
-184 179 180 0
184 -179 180 0
184 179 -180 0
-190 -178 -184 0
-190 178 184 0
190 -178 184 0
190 178 -184 0
-206 204 205 0
206 -204 0
206 -205 0
-228 210 211 0
228 -210 0
228 -211 0
-226 222 223 0
226 -222 0
226 -223 0
-227 224 225 0
227 -224 0
227 -225 0
-212 226 227 0
212 -226 0
212 -227 0
207 -204 -205 0
-207 204 0
-207 205 0
210 -204 -205 0
-210 204 0
-210 205 0
211 -209 -203 0
-211 209 0
-211 203 0
216 -214 -207 0
-216 214 0
-216 207 0
218 -213 -206 0
-218 213 0
-218 206 0
219 -208 -1 0
-219 208 0
-219 1 0
221 -215 -1 0
-221 215 0
-221 1 0
222 -216 -217 0
-222 216 0
-222 217 0
223 -2 -218 0
-223 2 0
-223 218 0
224 -219 -220 0
-224 219 0
-224 220 0
225 -2 -221 0
-225 2 0
-225 221 0
-208 -204 0
208 204 0
-213 -1 0
213 1 0
-214 -1 0
214 1 0
-217 -2 0
217 2 0
-220 -2 0
220 2 0
-209 -204 -205 0
-209 204 205 0
209 -204 205 0
209 204 -205 0
-215 -203 -209 0
-215 203 209 0
215 -203 209 0
215 203 -209 0
-231 229 230 0
231 -229 0
231 -230 0
-253 235 236 0
253 -235 0
253 -236 0
-251 247 248 0
251 -247 0
251 -248 0
-252 249 250 0
252 -249 0
252 -250 0
-237 251 252 0
237 -251 0
237 -252 0
232 -229 -230 0
-232 229 0
-232 230 0
235 -229 -230 0
-235 229 0
-235 230 0
236 -234 -228 0
-236 234 0
-236 228 0
241 -239 -232 0
-241 239 0
-241 232 0
243 -238 -231 0
-243 238 0
-243 231 0
244 -233 -1 0
-244 233 0
-244 1 0
246 -240 -1 0
-246 240 0
-246 1 0
247 -241 -242 0
-247 241 0
-247 242 0
248 -2 -243 0
-248 2 0
-248 243 0
249 -244 -245 0
-249 244 0
-249 245 0
250 -2 -246 0
-250 2 0
-250 246 0
-233 -229 0
233 229 0
-238 -1 0
238 1 0
-239 -1 0
239 1 0
-242 -2 0
242 2 0
-245 -2 0
245 2 0
-234 -229 -230 0
-234 229 230 0
234 -229 230 0
234 229 -230 0
-240 -228 -234 0
-240 228 234 0
240 -228 234 0
240 228 -234 0
-256 254 255 0
256 -254 0
256 -255 0
-278 260 261 0
278 -260 0
278 -261 0
-276 272 273 0
276 -272 0
276 -273 0
-277 274 275 0
277 -274 0
277 -275 0
-262 276 277 0
262 -276 0
262 -277 0
257 -254 -255 0
-257 254 0
-257 255 0
260 -254 -255 0
-260 254 0
-260 255 0
261 -259 -253 0
-261 259 0
-261 253 0
266 -264 -257 0
-266 264 0
-266 257 0
268 -263 -256 0
-268 263 0
-268 256 0
269 -258 -1 0
-269 258 0
-269 1 0
271 -265 -1 0
-271 265 0
-271 1 0
272 -266 -267 0
-272 266 0
-272 267 0
273 -2 -268 0
-273 2 0
-273 268 0
274 -269 -270 0
-274 269 0
-274 270 0
275 -2 -271 0
-275 2 0
-275 271 0
-258 -254 0
258 254 0
-263 -1 0
263 1 0
-264 -1 0
264 1 0
-267 -2 0
267 2 0
-270 -2 0
270 2 0
-259 -254 -255 0
-259 254 255 0
259 -254 255 0
259 254 -255 0
-265 -253 -259 0
-265 253 259 0
265 -253 259 0
265 253 -259 0
-281 279 280 0
281 -279 0
281 -280 0
-303 285 286 0
303 -285 0
303 -286 0
-301 297 298 0
301 -297 0
301 -298 0
-302 299 300 0
302 -299 0
302 -300 0
-287 301 302 0
287 -301 0
287 -302 0
282 -279 -280 0
-282 279 0
-282 280 0
285 -279 -280 0
-285 279 0
-285 280 0
286 -284 -278 0
-286 284 0
-286 278 0
291 -289 -282 0
-291 289 0
-291 282 0
293 -288 -281 0
-293 288 0
-293 281 0
294 -283 -1 0
-294 283 0
-294 1 0
296 -290 -1 0
-296 290 0
-296 1 0
297 -291 -292 0
-297 291 0
-297 292 0
298 -2 -293 0
-298 2 0
-298 293 0
299 -294 -295 0
-299 294 0
-299 295 0
300 -2 -296 0
-300 2 0
-300 296 0
-283 -279 0
283 279 0
-288 -1 0
288 1 0
-289 -1 0
289 1 0
-292 -2 0
292 2 0
-295 -2 0
295 2 0
-284 -279 -280 0
-284 279 280 0
284 -279 280 0
284 279 -280 0
-290 -278 -284 0
-290 278 284 0
290 -278 284 0
290 278 -284 0
-306 304 305 0
306 -304 0
306 -305 0
-328 310 311 0
328 -310 0
328 -311 0
-326 322 323 0
326 -322 0
326 -323 0
-327 324 325 0
327 -324 0
327 -325 0
-312 326 327 0
312 -326 0
312 -327 0
307 -304 -305 0
-307 304 0
-307 305 0
310 -304 -305 0
-310 304 0
-310 305 0
311 -309 -303 0
-311 309 0
-311 303 0
316 -314 -307 0
-316 314 0
-316 307 0
318 -313 -306 0
-318 313 0
-318 306 0
319 -308 -1 0
-319 308 0
-319 1 0
321 -315 -1 0
-321 315 0
-321 1 0
322 -316 -317 0
-322 316 0
-322 317 0
323 -2 -318 0
-323 2 0
-323 318 0
324 -319 -320 0
-324 319 0
-324 320 0
325 -2 -321 0
-325 2 0
-325 321 0
-308 -304 0
308 304 0
-313 -1 0
313 1 0
-314 -1 0
314 1 0
-317 -2 0
317 2 0
-320 -2 0
320 2 0
-309 -304 -305 0
-309 304 305 0
309 -304 305 0
309 304 -305 0
-315 -303 -309 0
-315 303 309 0
315 -303 309 0
315 303 -309 0
-331 329 330 0
331 -329 0
331 -330 0
-353 335 336 0
353 -335 0
353 -336 0
-351 347 348 0
351 -347 0
351 -348 0
-352 349 350 0
352 -349 0
352 -350 0
-337 351 352 0
337 -351 0
337 -352 0
332 -329 -330 0
-332 329 0
-332 330 0
335 -329 -330 0
-335 329 0
-335 330 0
336 -334 -328 0
-336 334 0
-336 328 0
341 -339 -332 0
-341 339 0
-341 332 0
343 -338 -331 0
-343 338 0
-343 331 0
344 -333 -1 0
-344 333 0
-344 1 0
346 -340 -1 0
-346 340 0
-346 1 0
347 -341 -342 0
-347 341 0
-347 342 0
348 -2 -343 0
-348 2 0
-348 343 0
349 -344 -345 0
-349 344 0
-349 345 0
350 -2 -346 0
-350 2 0
-350 346 0
-333 -329 0
333 329 0
-338 -1 0
338 1 0
-339 -1 0
339 1 0
-342 -2 0
342 2 0
-345 -2 0
345 2 0
-334 -329 -330 0
-334 329 330 0
334 -329 330 0
334 329 -330 0
-340 -328 -334 0
-340 328 334 0
340 -328 334 0
340 328 -334 0
-356 354 355 0
356 -354 0
356 -355 0
-378 360 361 0
378 -360 0
378 -361 0
-376 372 373 0
376 -372 0
376 -373 0
-377 374 375 0
377 -374 0
377 -375 0
-362 376 377 0
362 -376 0
362 -377 0
357 -354 -355 0
-357 354 0
-357 355 0
360 -354 -355 0
-360 354 0
-360 355 0
361 -359 -353 0
-361 359 0
-361 353 0
366 -364 -357 0
-366 364 0
-366 357 0
368 -363 -356 0
-368 363 0
-368 356 0
369 -358 -1 0
-369 358 0
-369 1 0
371 -365 -1 0
-371 365 0
-371 1 0
372 -366 -367 0
-372 366 0
-372 367 0
373 -2 -368 0
-373 2 0
-373 368 0
374 -369 -370 0
-374 369 0
-374 370 0
375 -2 -371 0
-375 2 0
-375 371 0
-358 -354 0
358 354 0
-363 -1 0
363 1 0
-364 -1 0
364 1 0
-367 -2 0
367 2 0
-370 -2 0
370 2 0
-359 -354 -355 0
-359 354 355 0
359 -354 355 0
359 354 -355 0
-365 -353 -359 0
-365 353 359 0
365 -353 359 0
365 353 -359 0
-381 379 380 0
381 -379 0
381 -380 0
-403 385 386 0
403 -385 0
403 -386 0
-401 397 398 0
401 -397 0
401 -398 0
-402 399 400 0
402 -399 0
402 -400 0
-387 401 402 0
387 -401 0
387 -402 0
382 -379 -380 0
-382 379 0
-382 380 0
385 -379 -380 0
-385 379 0
-385 380 0
386 -384 -378 0
-386 384 0
-386 378 0
391 -389 -382 0
-391 389 0
-391 382 0
393 -388 -381 0
-393 388 0
-393 381 0
394 -383 -1 0
-394 383 0
-394 1 0
396 -390 -1 0
-396 390 0
-396 1 0
397 -391 -392 0
-397 391 0
-397 392 0
398 -2 -393 0
-398 2 0
-398 393 0
399 -394 -395 0
-399 394 0
-399 395 0
400 -2 -396 0
-400 2 0
-400 396 0
-383 -379 0
383 379 0
-388 -1 0
388 1 0
-389 -1 0
389 1 0
-392 -2 0
392 2 0
-395 -2 0
395 2 0
-384 -379 -380 0
-384 379 380 0
384 -379 380 0
384 379 -380 0
-390 -378 -384 0
-390 378 384 0
390 -378 384 0
390 378 -384 0
-406 404 405 0
406 -404 0
406 -405 0
-428 410 411 0
428 -410 0
428 -411 0
-426 422 423 0
426 -422 0
426 -423 0
-427 424 425 0
427 -424 0
427 -425 0
-412 426 427 0
412 -426 0
412 -427 0
407 -404 -405 0
-407 404 0
-407 405 0
410 -404 -405 0
-410 404 0
-410 405 0
411 -409 -403 0
-411 409 0
-411 403 0
416 -414 -407 0
-416 414 0
-416 407 0
418 -413 -406 0
-418 413 0
-418 406 0
419 -408 -1 0
-419 408 0
-419 1 0
421 -415 -1 0
-421 415 0
-421 1 0
422 -416 -417 0
-422 416 0
-422 417 0
423 -2 -418 0
-423 2 0
-423 418 0
424 -419 -420 0
-424 419 0
-424 420 0
425 -2 -421 0
-425 2 0
-425 421 0
-408 -404 0
408 404 0
-413 -1 0
413 1 0
-414 -1 0
414 1 0
-417 -2 0
417 2 0
-420 -2 0
420 2 0
-409 -404 -405 0
-409 404 405 0
409 -404 405 0
409 404 -405 0
-415 -403 -409 0
-415 403 409 0
415 -403 409 0
415 403 -409 0
-431 429 430 0
431 -429 0
431 -430 0
-453 435 436 0
453 -435 0
453 -436 0
-451 447 448 0
451 -447 0
451 -448 0
-452 449 450 0
452 -449 0
452 -450 0
-437 451 452 0
437 -451 0
437 -452 0
432 -429 -430 0
-432 429 0
-432 430 0
435 -429 -430 0
-435 429 0
-435 430 0
436 -434 -428 0
-436 434 0
-436 428 0
441 -439 -432 0
-441 439 0
-441 432 0
443 -438 -431 0
-443 438 0
-443 431 0
444 -433 -1 0
-444 433 0
-444 1 0
446 -440 -1 0
-446 440 0
-446 1 0
447 -441 -442 0
-447 441 0
-447 442 0
448 -2 -443 0
-448 2 0
-448 443 0
449 -444 -445 0
-449 444 0
-449 445 0
450 -2 -446 0
-450 2 0
-450 446 0
-433 -429 0
433 429 0
-438 -1 0
438 1 0
-439 -1 0
439 1 0
-442 -2 0
442 2 0
-445 -2 0
445 2 0
-434 -429 -430 0
-434 429 430 0
434 -429 430 0
434 429 -430 0
-440 -428 -434 0
-440 428 434 0
440 -428 434 0
440 428 -434 0
-456 454 455 0
456 -454 0
456 -455 0
-478 460 461 0
478 -460 0
478 -461 0
-476 472 473 0
476 -472 0
476 -473 0
-477 474 475 0
477 -474 0
477 -475 0
-462 476 477 0
462 -476 0
462 -477 0
457 -454 -455 0
-457 454 0
-457 455 0
460 -454 -455 0
-460 454 0
-460 455 0
461 -459 -453 0
-461 459 0
-461 453 0
466 -464 -457 0
-466 464 0
-466 457 0
468 -463 -456 0
-468 463 0
-468 456 0
469 -458 -1 0
-469 458 0
-469 1 0
471 -465 -1 0
-471 465 0
-471 1 0
472 -466 -467 0
-472 466 0
-472 467 0
473 -2 -468 0
-473 2 0
-473 468 0
474 -469 -470 0
-474 469 0
-474 470 0
475 -2 -471 0
-475 2 0
-475 471 0
-458 -454 0
458 454 0
-463 -1 0
463 1 0
-464 -1 0
464 1 0
-467 -2 0
467 2 0
-470 -2 0
470 2 0
-459 -454 -455 0
-459 454 455 0
459 -454 455 0
459 454 -455 0
-465 -453 -459 0
-465 453 459 0
465 -453 459 0
465 453 -459 0
-481 479 480 0
481 -479 0
481 -480 0
-503 485 486 0
503 -485 0
503 -486 0
-501 497 498 0
501 -497 0
501 -498 0
-502 499 500 0
502 -499 0
502 -500 0
-487 501 502 0
487 -501 0
487 -502 0
482 -479 -480 0
-482 479 0
-482 480 0
485 -479 -480 0
-485 479 0
-485 480 0
486 -484 -478 0
-486 484 0
-486 478 0
491 -489 -482 0
-491 489 0
-491 482 0
493 -488 -481 0
-493 488 0
-493 481 0
494 -483 -1 0
-494 483 0
-494 1 0
496 -490 -1 0
-496 490 0
-496 1 0
497 -491 -492 0
-497 491 0
-497 492 0
498 -2 -493 0
-498 2 0
-498 493 0
499 -494 -495 0
-499 494 0
-499 495 0
500 -2 -496 0
-500 2 0
-500 496 0
-483 -479 0
483 479 0
-488 -1 0
488 1 0
-489 -1 0
489 1 0
-492 -2 0
492 2 0
-495 -2 0
495 2 0
-484 -479 -480 0
-484 479 480 0
484 -479 480 0
484 479 -480 0
-490 -478 -484 0
-490 478 484 0
490 -478 484 0
490 478 -484 0
-506 504 505 0
506 -504 0
506 -505 0
-528 510 511 0
528 -510 0
528 -511 0
-526 522 523 0
526 -522 0
526 -523 0
-527 524 525 0
527 -524 0
527 -525 0
-512 526 527 0
512 -526 0
512 -527 0
507 -504 -505 0
-507 504 0
-507 505 0
510 -504 -505 0
-510 504 0
-510 505 0
511 -509 -503 0
-511 509 0
-511 503 0
516 -514 -507 0
-516 514 0
-516 507 0
518 -513 -506 0
-518 513 0
-518 506 0
519 -508 -1 0
-519 508 0
-519 1 0
521 -515 -1 0
-521 515 0
-521 1 0
522 -516 -517 0
-522 516 0
-522 517 0
523 -2 -518 0
-523 2 0
-523 518 0
524 -519 -520 0
-524 519 0
-524 520 0
525 -2 -521 0
-525 2 0
-525 521 0
-508 -504 0
508 504 0
-513 -1 0
513 1 0
-514 -1 0
514 1 0
-517 -2 0
517 2 0
-520 -2 0
520 2 0
-509 -504 -505 0
-509 504 505 0
509 -504 505 0
509 504 -505 0
-515 -503 -509 0
-515 503 509 0
515 -503 509 0
515 503 -509 0
-531 529 530 0
531 -529 0
531 -530 0
-553 535 536 0
553 -535 0
553 -536 0
-551 547 548 0
551 -547 0
551 -548 0
-552 549 550 0
552 -549 0
552 -550 0
-537 551 552 0
537 -551 0
537 -552 0
532 -529 -530 0
-532 529 0
-532 530 0
535 -529 -530 0
-535 529 0
-535 530 0
536 -534 -528 0
-536 534 0
-536 528 0
541 -539 -532 0
-541 539 0
-541 532 0
543 -538 -531 0
-543 538 0
-543 531 0
544 -533 -1 0
-544 533 0
-544 1 0
546 -540 -1 0
-546 540 0
-546 1 0
547 -541 -542 0
-547 541 0
-547 542 0
548 -2 -543 0
-548 2 0
-548 543 0
549 -544 -545 0
-549 544 0
-549 545 0
550 -2 -546 0
-550 2 0
-550 546 0
-533 -529 0
533 529 0
-538 -1 0
538 1 0
-539 -1 0
539 1 0
-542 -2 0
542 2 0
-545 -2 0
545 2 0
-534 -529 -530 0
-534 529 530 0
534 -529 530 0
534 529 -530 0
-540 -528 -534 0
-540 528 534 0
540 -528 534 0
540 528 -534 0
-556 554 555 0
556 -554 0
556 -555 0
-578 560 561 0
578 -560 0
578 -561 0
-576 572 573 0
576 -572 0
576 -573 0
-577 574 575 0
577 -574 0
577 -575 0
-562 576 577 0
562 -576 0
562 -577 0
557 -554 -555 0
-557 554 0
-557 555 0
560 -554 -555 0
-560 554 0
-560 555 0
561 -559 -553 0
-561 559 0
-561 553 0
566 -564 -557 0
-566 564 0
-566 557 0
568 -563 -556 0
-568 563 0
-568 556 0
569 -558 -1 0
-569 558 0
-569 1 0
571 -565 -1 0
-571 565 0
-571 1 0
572 -566 -567 0
-572 566 0
-572 567 0
573 -2 -568 0
-573 2 0
-573 568 0
574 -569 -570 0
-574 569 0
-574 570 0
575 -2 -571 0
-575 2 0
-575 571 0
-558 -554 0
558 554 0
-563 -1 0
563 1 0
-564 -1 0
564 1 0
-567 -2 0
567 2 0
-570 -2 0
570 2 0
-559 -554 -555 0
-559 554 555 0
559 -554 555 0
559 554 -555 0
-565 -553 -559 0
-565 553 559 0
565 -553 559 0
565 553 -559 0
-581 579 580 0
581 -579 0
581 -580 0
-603 585 586 0
603 -585 0
603 -586 0
-601 597 598 0
601 -597 0
601 -598 0
-602 599 600 0
602 -599 0
602 -600 0
-587 601 602 0
587 -601 0
587 -602 0
582 -579 -580 0
-582 579 0
-582 580 0
585 -579 -580 0
-585 579 0
-585 580 0
586 -584 -578 0
-586 584 0
-586 578 0
591 -589 -582 0
-591 589 0
-591 582 0
593 -588 -581 0
-593 588 0
-593 581 0
594 -583 -1 0
-594 583 0
-594 1 0
596 -590 -1 0
-596 590 0
-596 1 0
597 -591 -592 0
-597 591 0
-597 592 0
598 -2 -593 0
-598 2 0
-598 593 0
599 -594 -595 0
-599 594 0
-599 595 0
600 -2 -596 0
-600 2 0
-600 596 0
-583 -579 0
583 579 0
-588 -1 0
588 1 0
-589 -1 0
589 1 0
-592 -2 0
592 2 0
-595 -2 0
595 2 0
-584 -579 -580 0
-584 579 580 0
584 -579 580 0
584 579 -580 0
-590 -578 -584 0
-590 578 584 0
590 -578 584 0
590 578 -584 0
-606 604 605 0
606 -604 0
606 -605 0
-628 610 611 0
628 -610 0
628 -611 0
-626 622 623 0
626 -622 0
626 -623 0
-627 624 625 0
627 -624 0
627 -625 0
-612 626 627 0
612 -626 0
612 -627 0
607 -604 -605 0
-607 604 0
-607 605 0
610 -604 -605 0
-610 604 0
-610 605 0
611 -609 -603 0
-611 609 0
-611 603 0
616 -614 -607 0
-616 614 0
-616 607 0
618 -613 -606 0
-618 613 0
-618 606 0
619 -608 -1 0
-619 608 0
-619 1 0
621 -615 -1 0
-621 615 0
-621 1 0
622 -616 -617 0
-622 616 0
-622 617 0
623 -2 -618 0
-623 2 0
-623 618 0
624 -619 -620 0
-624 619 0
-624 620 0
625 -2 -621 0
-625 2 0
-625 621 0
-608 -604 0
608 604 0
-613 -1 0
613 1 0
-614 -1 0
614 1 0
-617 -2 0
617 2 0
-620 -2 0
620 2 0
-609 -604 -605 0
-609 604 605 0
609 -604 605 0
609 604 -605 0
-615 -603 -609 0
-615 603 609 0
615 -603 609 0
615 603 -609 0
-631 629 630 0
631 -629 0
631 -630 0
-653 635 636 0
653 -635 0
653 -636 0
-651 647 648 0
651 -647 0
651 -648 0
-652 649 650 0
652 -649 0
652 -650 0
-637 651 652 0
637 -651 0
637 -652 0
632 -629 -630 0
-632 629 0
-632 630 0
635 -629 -630 0
-635 629 0
-635 630 0
636 -634 -628 0
-636 634 0
-636 628 0
641 -639 -632 0
-641 639 0
-641 632 0
643 -638 -631 0
-643 638 0
-643 631 0
644 -633 -1 0
-644 633 0
-644 1 0
646 -640 -1 0
-646 640 0
-646 1 0
647 -641 -642 0
-647 641 0
-647 642 0
648 -2 -643 0
-648 2 0
-648 643 0
649 -644 -645 0
-649 644 0
-649 645 0
650 -2 -646 0
-650 2 0
-650 646 0
-633 -629 0
633 629 0
-638 -1 0
638 1 0
-639 -1 0
639 1 0
-642 -2 0
642 2 0
-645 -2 0
645 2 0
-634 -629 -630 0
-634 629 630 0
634 -629 630 0
634 629 -630 0
-640 -628 -634 0
-640 628 634 0
640 -628 634 0
640 628 -634 0
-656 654 655 0
656 -654 0
656 -655 0
-678 660 661 0
678 -660 0
678 -661 0
-676 672 673 0
676 -672 0
676 -673 0
-677 674 675 0
677 -674 0
677 -675 0
-662 676 677 0
662 -676 0
662 -677 0
657 -654 -655 0
-657 654 0
-657 655 0
660 -654 -655 0
-660 654 0
-660 655 0
661 -659 -653 0
-661 659 0
-661 653 0
666 -664 -657 0
-666 664 0
-666 657 0
668 -663 -656 0
-668 663 0
-668 656 0
669 -658 -1 0
-669 658 0
-669 1 0
671 -665 -1 0
-671 665 0
-671 1 0
672 -666 -667 0
-672 666 0
-672 667 0
673 -2 -668 0
-673 2 0
-673 668 0
674 -669 -670 0
-674 669 0
-674 670 0
675 -2 -671 0
-675 2 0
-675 671 0
-658 -654 0
658 654 0
-663 -1 0
663 1 0
-664 -1 0
664 1 0
-667 -2 0
667 2 0
-670 -2 0
670 2 0
-659 -654 -655 0
-659 654 655 0
659 -654 655 0
659 654 -655 0
-665 -653 -659 0
-665 653 659 0
665 -653 659 0
665 653 -659 0
-681 679 680 0
681 -679 0
681 -680 0
-703 685 686 0
703 -685 0
703 -686 0
-701 697 698 0
701 -697 0
701 -698 0
-702 699 700 0
702 -699 0
702 -700 0
-687 701 702 0
687 -701 0
687 -702 0
682 -679 -680 0
-682 679 0
-682 680 0
685 -679 -680 0
-685 679 0
-685 680 0
686 -684 -678 0
-686 684 0
-686 678 0
691 -689 -682 0
-691 689 0
-691 682 0
693 -688 -681 0
-693 688 0
-693 681 0
694 -683 -1 0
-694 683 0
-694 1 0
696 -690 -1 0
-696 690 0
-696 1 0
697 -691 -692 0
-697 691 0
-697 692 0
698 -2 -693 0
-698 2 0
-698 693 0
699 -694 -695 0
-699 694 0
-699 695 0
700 -2 -696 0
-700 2 0
-700 696 0
-683 -679 0
683 679 0
-688 -1 0
688 1 0
-689 -1 0
689 1 0
-692 -2 0
692 2 0
-695 -2 0
695 2 0
-684 -679 -680 0
-684 679 680 0
684 -679 680 0
684 679 -680 0
-690 -678 -684 0
-690 678 684 0
690 -678 684 0
690 678 -684 0
-706 704 705 0
706 -704 0
706 -705 0
-728 710 711 0
728 -710 0
728 -711 0
-726 722 723 0
726 -722 0
726 -723 0
-727 724 725 0
727 -724 0
727 -725 0
-712 726 727 0
712 -726 0
712 -727 0
707 -704 -705 0
-707 704 0
-707 705 0
710 -704 -705 0
-710 704 0
-710 705 0
711 -709 -703 0
-711 709 0
-711 703 0
716 -714 -707 0
-716 714 0
-716 707 0
718 -713 -706 0
-718 713 0
-718 706 0
719 -708 -1 0
-719 708 0
-719 1 0
721 -715 -1 0
-721 715 0
-721 1 0
722 -716 -717 0
-722 716 0
-722 717 0
723 -2 -718 0
-723 2 0
-723 718 0
724 -719 -720 0
-724 719 0
-724 720 0
725 -2 -721 0
-725 2 0
-725 721 0
-708 -704 0
708 704 0
-713 -1 0
713 1 0
-714 -1 0
714 1 0
-717 -2 0
717 2 0
-720 -2 0
720 2 0
-709 -704 -705 0
-709 704 705 0
709 -704 705 0
709 704 -705 0
-715 -703 -709 0
-715 703 709 0
715 -703 709 0
715 703 -709 0
-731 729 730 0
731 -729 0
731 -730 0
-753 735 736 0
753 -735 0
753 -736 0
-751 747 748 0
751 -747 0
751 -748 0
-752 749 750 0
752 -749 0
752 -750 0
-737 751 752 0
737 -751 0
737 -752 0
732 -729 -730 0
-732 729 0
-732 730 0
735 -729 -730 0
-735 729 0
-735 730 0
736 -734 -728 0
-736 734 0
-736 728 0
741 -739 -732 0
-741 739 0
-741 732 0
743 -738 -731 0
-743 738 0
-743 731 0
744 -733 -1 0
-744 733 0
-744 1 0
746 -740 -1 0
-746 740 0
-746 1 0
747 -741 -742 0
-747 741 0
-747 742 0
748 -2 -743 0
-748 2 0
-748 743 0
749 -744 -745 0
-749 744 0
-749 745 0
750 -2 -746 0
-750 2 0
-750 746 0
-733 -729 0
733 729 0
-738 -1 0
738 1 0
-739 -1 0
739 1 0
-742 -2 0
742 2 0
-745 -2 0
745 2 0
-734 -729 -730 0
-734 729 730 0
734 -729 730 0
734 729 -730 0
-740 -728 -734 0
-740 728 734 0
740 -728 734 0
740 728 -734 0
-756 754 755 0
756 -754 0
756 -755 0
-778 760 761 0
778 -760 0
778 -761 0
-776 772 773 0
776 -772 0
776 -773 0
-777 774 775 0
777 -774 0
777 -775 0
-762 776 777 0
762 -776 0
762 -777 0
757 -754 -755 0
-757 754 0
-757 755 0
760 -754 -755 0
-760 754 0
-760 755 0
761 -759 -753 0
-761 759 0
-761 753 0
766 -764 -757 0
-766 764 0
-766 757 0
768 -763 -756 0
-768 763 0
-768 756 0
769 -758 -1 0
-769 758 0
-769 1 0
771 -765 -1 0
-771 765 0
-771 1 0
772 -766 -767 0
-772 766 0
-772 767 0
773 -2 -768 0
-773 2 0
-773 768 0
774 -769 -770 0
-774 769 0
-774 770 0
775 -2 -771 0
-775 2 0
-775 771 0
-758 -754 0
758 754 0
-763 -1 0
763 1 0
-764 -1 0
764 1 0
-767 -2 0
767 2 0
-770 -2 0
770 2 0
-759 -754 -755 0
-759 754 755 0
759 -754 755 0
759 754 -755 0
-765 -753 -759 0
-765 753 759 0
765 -753 759 0
765 753 -759 0
-781 779 780 0
781 -779 0
781 -780 0
-803 785 786 0
803 -785 0
803 -786 0
-801 797 798 0
801 -797 0
801 -798 0
-802 799 800 0
802 -799 0
802 -800 0
-787 801 802 0
787 -801 0
787 -802 0
782 -779 -780 0
-782 779 0
-782 780 0
785 -779 -780 0
-785 779 0
-785 780 0
786 -784 -778 0
-786 784 0
-786 778 0
791 -789 -782 0
-791 789 0
-791 782 0
793 -788 -781 0
-793 788 0
-793 781 0
794 -783 -1 0
-794 783 0
-794 1 0
796 -790 -1 0
-796 790 0
-796 1 0
797 -791 -792 0
-797 791 0
-797 792 0
798 -2 -793 0
-798 2 0
-798 793 0
799 -794 -795 0
-799 794 0
-799 795 0
800 -2 -796 0
-800 2 0
-800 796 0
-783 -779 0
783 779 0
-788 -1 0
788 1 0
-789 -1 0
789 1 0
-792 -2 0
792 2 0
-795 -2 0
795 2 0
-784 -779 -780 0
-784 779 780 0
784 -779 780 0
784 779 -780 0
-790 -778 -784 0
-790 778 784 0
790 -778 784 0
790 778 -784 0
806 804 805 0
-806 804 805 0
806 -804 805 0
806 804 -805 0
-806 -804 -805 0
-806 -804 805 0
806 -804 -805 0
-806 804 -805 0

